
Gurobi 7.5.2 (linux64) logging started Sat Jul  7 16:27:11 2018

Changed value of parameter LogFile to result/ilp/simNo_5-n_100-m_40-s_4-minVAF_0.05-cov_10000-k_1-fn_0.15-fp_0.0001-na_0.15.ILP.gurobiSolverLog
   Prev: gurobi.log  Default: 
Changed value of parameter TimeLimit to 86400.0
   Prev: 1e+100  Min: 0.0  Max: 1e+100  Default: 1e+100
Optimize a model with 639293 rows, 10765 columns and 1940420 nonzeros
Variable types: 0 continuous, 10765 integer (10765 binary)
Coefficient statistics:
  Matrix range     [1e-05, 4e+00]
  Objective range  [2e+00, 2e+01]
  Bounds range     [1e+00, 1e+00]
  RHS range        [8e-02, 2e+00]
Found heuristic solution: objective -8188.917392
Presolve removed 137309 rows and 1059 columns (presolve time = 5s) ...
Presolve removed 137923 rows and 1059 columns (presolve time = 13s) ...
Presolve removed 199123 rows and 1671 columns (presolve time = 15s) ...
Presolve removed 199123 rows and 1671 columns
Presolve time: 18.54s
Presolved: 440170 rows, 9094 columns, 1323471 nonzeros
Variable types: 0 continuous, 9094 integer (9094 binary)
Presolved: 9094 rows, 449264 columns, 1332565 nonzeros

Presolve removed 9094 rows and 449264 columns

Root simplex log...

Iteration    Objective       Primal Inf.    Dual Inf.      Time
       0    1.5763325e+01   0.000000e+00   4.307800e+04     23s
   10513   -1.4815854e+02   0.000000e+00   0.000000e+00     25s
   10513   -1.4815854e+02   0.000000e+00   0.000000e+00     26s

Root relaxation: objective -1.481585e+02, 10513 iterations, 6.26 seconds
Total elapsed time = 38.13s
Total elapsed time = 43.78s
Total elapsed time = 49.87s
Total elapsed time = 56.50s

    Nodes    |    Current Node    |     Objective Bounds      |     Work
 Expl Unexpl |  Obj  Depth IntInf | Incumbent    BestBd   Gap | It/Node Time

     0     0 -148.15854    0  606 -8188.9174 -148.15854  98.2%     -   62s
H    0     0                    -233.3536346 -148.15854  36.5%     -   67s
H    0     0                    -199.1468797 -148.15854  25.6%     -   68s
H    0     0                    -189.3743066 -148.15854  21.8%     -   74s
     0     0 -151.78708    0  647 -189.37431 -151.78708  19.8%     -   81s
H    0     0                    -189.2295814 -151.78708  19.8%     -   90s
     0     0 -151.78708    0  648 -189.22958 -151.78708  19.8%     -   91s
     0     0 -154.63741    0  653 -189.22958 -154.63741  18.3%     -   96s
     0     0 -154.63741    0  654 -189.22958 -154.63741  18.3%     -  100s
     0     0 -155.85898    0  656 -189.22958 -155.85898  17.6%     -  106s
     0     0 -155.85898    0  656 -189.22958 -155.85898  17.6%     -  110s
     0     0 -155.85898    0  665 -189.22958 -155.85898  17.6%     -  116s
     0     0 -156.26617    0  667 -189.22958 -156.26617  17.4%     -  120s
     0     0 -156.26617    0  672 -189.22958 -156.26617  17.4%     -  123s
     0     0 -156.67336    0  598 -189.22958 -156.67336  17.2%     -  198s
     0     0 -156.67336    0  603 -189.22958 -156.67336  17.2%     -  205s
     0     0 -156.67336    0  653 -189.22958 -156.67336  17.2%     -  210s
     0     0 -156.67336    0  655 -189.22958 -156.67336  17.2%     -  217s
     0     0 -157.01665    0  625 -189.22958 -157.01665  17.0%     -  277s
     0     0 -157.28811    0  658 -189.22958 -157.28811  16.9%     -  286s
     0     0 -157.28811    0  660 -189.22958 -157.28811  16.9%     -  289s
     0     0 -157.75920    0  680 -189.22958 -157.75920  16.6%     -  296s
H    0     0                    -187.6008192 -157.75920  15.9%     -  305s
     0     0 -157.75920    0  681 -187.60082 -157.75920  15.9%     -  306s
     0     0 -157.89493    0  677 -187.60082 -157.89493  15.8%     -  312s
     0     0 -158.03066    0  682 -187.60082 -158.03066  15.8%     -  325s
     0     0 -158.30212    0  680 -187.60082 -158.30212  15.6%     -  328s
     0     0 -158.30212    0  678 -187.60082 -158.30212  15.6%     -  330s
     0     0 -159.11651    0  690 -187.60082 -159.11651  15.2%     -  337s
     0     0 -159.11651    0  688 -187.60082 -159.11651  15.2%     -  341s
     0     0 -159.76281    0  707 -187.60082 -159.76281  14.8%     -  349s
     0     0 -159.76281    0  704 -187.60082 -159.76281  14.8%     -  354s
     0     0 -159.97276    0  706 -187.60082 -159.97276  14.7%     -  360s
     0     0 -160.44831    0  713 -187.60082 -160.44831  14.5%     -  366s
     0     0 -160.50125    0  713 -187.60082 -160.50125  14.4%     -  370s
     0     0 -160.50519    0  715 -187.60082 -160.50519  14.4%     -  372s
     0     0 -160.51568    0  711 -187.60082 -160.51568  14.4%     -  375s
     0     0 -160.52868    0  716 -187.60082 -160.52868  14.4%     -  377s
     0     0 -160.52868    0  716 -187.60082 -160.52868  14.4%     -  379s
     0     0 -160.63492    0  712 -187.60082 -160.63492  14.4%     -  384s
     0     0 -160.84312    0  713 -187.60082 -160.84312  14.3%     -  388s
     0     0 -160.89750    0  713 -187.60082 -160.89750  14.2%     -  390s
     0     0 -160.89979    0  714 -187.60082 -160.89979  14.2%     -  393s
     0     0 -160.89979    0  714 -187.60082 -160.89979  14.2%     -  395s
     0     0 -161.24425    0  715 -187.60082 -161.24425  14.0%     -  401s
     0     0 -161.74055    0  717 -187.60082 -161.74055  13.8%     -  405s
     0     0 -161.74055    0  713 -187.60082 -161.74055  13.8%     -  408s
     0     0 -162.30217    0  697 -187.60082 -162.30217  13.5%     -  414s
     0     0 -162.50316    0  713 -187.60082 -162.50316  13.4%     -  419s
     0     0 -162.60496    0  712 -187.60082 -162.60496  13.3%     -  421s
     0     0 -162.62352    0  714 -187.60082 -162.62352  13.3%     -  424s
     0     0 -162.62881    0  713 -187.60082 -162.62881  13.3%     -  426s
     0     0 -162.62881    0  714 -187.60082 -162.62881  13.3%     -  428s
     0     0 -163.15391    0  691 -187.60082 -163.15391  13.0%     -  436s
     0     0 -163.28964    0  700 -187.60082 -163.28964  13.0%     -  449s
     0     0 -163.60635    0  700 -187.60082 -163.60635  12.8%     -  451s
     0     0 -163.63866    0  705 -187.60082 -163.63866  12.8%     -  453s
     0     0 -163.63866    0  707 -187.60082 -163.63866  12.8%     -  455s
     0     0 -163.86525    0  715 -187.60082 -163.86525  12.7%     -  462s
     0     0 -164.46342    0  692 -187.60082 -164.46342  12.3%     -  468s
     0     0 -164.54192    0  695 -187.60082 -164.54192  12.3%     -  471s
     0     0 -164.59750    0  703 -187.60082 -164.59750  12.3%     -  474s
     0     0 -164.59750    0  704 -187.60082 -164.59750  12.3%     -  476s
     0     0 -165.20059    0  699 -187.60082 -165.20059  11.9%     -  482s
     0     0 -165.58527    0  698 -187.60082 -165.58527  11.7%     -  488s
     0     0 -165.70740    0  706 -187.60082 -165.70740  11.7%     -  491s
     0     0 -165.71227    0  713 -187.60082 -165.71227  11.7%     -  493s
     0     0 -165.71287    0  714 -187.60082 -165.71287  11.7%     -  496s
     0     0 -166.19316    0  697 -187.60082 -166.19316  11.4%     -  502s
     0     0 -166.33817    0  707 -187.60082 -166.33817  11.3%     -  507s
     0     0 -166.34287    0  709 -187.60082 -166.34287  11.3%     -  510s
     0     0 -166.34543    0  712 -187.60082 -166.34543  11.3%     -  512s
     0     0 -166.34543    0  713 -187.60082 -166.34543  11.3%     -  514s
     0     0 -166.57265    0  717 -187.60082 -166.57265  11.2%     -  521s
     0     0 -166.57299    0  720 -187.60082 -166.57299  11.2%     -  525s
     0     0 -166.91996    0  693 -187.60082 -166.91996  11.0%     -  533s
     0     0 -167.12417    0  683 -187.60082 -167.12417  10.9%     -  539s
     0     0 -167.13296    0  682 -187.60082 -167.13296  10.9%     -  543s
     0     0 -167.13296    0  684 -187.60082 -167.13296  10.9%     -  545s
     0     0 -167.50926    0  675 -187.60082 -167.50926  10.7%     -  554s
     0     0 -167.69049    0  704 -187.60082 -167.69049  10.6%     -  560s
     0     0 -167.79943    0  693 -187.60082 -167.79943  10.6%     -  564s
     0     0 -167.80112    0  675 -187.60082 -167.80112  10.6%     -  567s
     0     0 -167.80112    0  682 -187.60082 -167.80112  10.6%     -  574s
     0     0 -167.82201    0  705 -187.60082 -167.82201  10.5%     -  584s
     0     0 -167.82580    0  699 -187.60082 -167.82580  10.5%     -  587s
     0     0 -167.82580    0  699 -187.60082 -167.82580  10.5%     -  589s
     0     0 -168.15579    0  696 -187.60082 -168.15579  10.4%     -  597s
     0     0 -168.21043    0  697 -187.60082 -168.21043  10.3%     -  604s
     0     0 -168.21043    0  707 -187.60082 -168.21043  10.3%     -  607s
     0     0 -168.21043    0  692 -187.60082 -168.21043  10.3%     -  613s
     0     0 -168.21043    0  699 -187.60082 -168.21043  10.3%     -  617s
     0     0 -168.55138    0  703 -187.60082 -168.55138  10.2%     -  624s
     0     0 -168.67340    0  697 -187.60082 -168.67340  10.1%     -  629s
     0     0 -168.71482    0  711 -187.60082 -168.71482  10.1%     -  633s
     0     0 -168.72775    0  701 -187.60082 -168.72775  10.1%     -  636s
     0     0 -168.73256    0  698 -187.60082 -168.73256  10.1%     -  638s
     0     0 -168.73259    0  703 -187.60082 -168.73259  10.1%     -  640s
     0     0 -169.15843    0  700 -187.60082 -169.15843  9.83%     -  647s
     0     0 -169.17832    0  702 -187.60082 -169.17832  9.82%     -  652s
     0     0 -169.17832    0  705 -187.60082 -169.17832  9.82%     -  654s
     0     0 -169.62131    0  712 -187.60082 -169.62131  9.58%     -  663s
H    0     0                    -186.1167823 -169.62131  8.86%     -  671s
     0     0 -169.63898    0  712 -186.11678 -169.63898  8.85%     -  673s
     0     0 -169.63898    0  715 -186.11678 -169.63898  8.85%     -  676s
     0     0 -169.65159    0  721 -186.11678 -169.65159  8.85%     -  682s
     0     0 -169.65159    0  715 -186.11678 -169.65159  8.85%     -  689s
     0     0 -169.65159    0  724 -186.11678 -169.65159  8.85%     -  695s
     0     0 -169.92959    0  719 -186.11678 -169.92959  8.70%     -  699s
     0     0 -169.93139    0  716 -186.11678 -169.93139  8.70%     -  702s
     0     0 -170.05878    0  685 -186.11678 -170.05878  8.63%     -  751s
H    0     0                    -184.4880201 -170.05878  7.82%     -  760s
     0     0 -170.12608    0  701 -184.48802 -170.12608  7.78%     -  762s
     0     0 -170.21814    0  707 -184.48802 -170.21814  7.73%     -  766s
     0     0 -170.21814    0  705 -184.48802 -170.21814  7.73%     -  768s
     0     0 -170.27407    0  692 -184.48802 -170.27407  7.70%     -  774s
     0     0 -170.28521    0  701 -184.48802 -170.28521  7.70%     -  779s
     0     0 -170.29487    0  699 -184.48802 -170.29487  7.69%     -  782s
     0     0 -170.29487    0  700 -184.48802 -170.29487  7.69%     -  784s
     0     0 -170.29487    0  697 -184.48802 -170.29487  7.69%     -  791s
     0     0 -170.29487    0  695 -184.48802 -170.29487  7.69%     -  795s
     0     0 -170.29487    0  678 -184.48802 -170.29487  7.69%     -  852s
     0     0 -170.29487    0  676 -184.48802 -170.29487  7.69%     -  885s
     0     2 -170.29628    0  676 -184.48802 -170.29628  7.69%     -  964s
     1     3 -171.03984    1  667 -184.48802 -170.35558  7.66%  2042  968s
     2     4 -177.99294    2  436 -184.48802 -170.35558  7.66%  2263  976s
     6     8 -181.73673    6  406 -184.48802 -170.35558  7.66%   867  980s
     8    10 -182.07919    7  257 -184.48802 -170.35558  7.66%   768  985s
    16    10 -174.97791    1  387 -184.48802 -171.12280  7.24%   593  997s
    19    13 -180.67858    4  232 -184.48802 -171.12280  7.24%   521 1000s
    28    14     cutoff    9      -184.48802 -171.12280  7.24%   367 1005s
    32    14 -182.31634    3  382 -184.48802 -175.07186  5.10%   349 1010s
    36    18 -181.23050    5  215 -184.48802 -175.07186  5.10%   325 1016s
    47    21 -183.67364   13  250 -184.48802 -175.07186  5.10%   255 1020s
    52    22 -179.86420    3  267 -184.48802 -178.01333  3.51%   243 1025s
    57    25 -182.71453    5  180 -184.48802 -178.01333  3.51%   230 1030s
    67    25 -183.12172    4  269 -184.48802 -178.11010  3.46%   204 1035s
    78    23 -179.33590    3  376 -184.48802 -178.61045  3.19%   184 1041s
    82    27 -183.13635    6  175 -184.48802 -178.61045  3.19%   186 1046s
    85    27     cutoff    9      -184.48802 -178.61045  3.19%   181 1050s
    94    26 -182.16062    5  230 -184.48802 -178.72503  3.12%   173 1056s
    99    26 -183.62107    7  298 -184.48802 -179.33590  2.79%   170 1060s
   109    22     cutoff    5      -184.48802 -180.27139  2.29%   162 1065s
   117    21     cutoff    6      -184.48802 -180.27139  2.29%   155 1070s
   119    21 -184.34329    5  215 -184.48802 -180.67858  2.06%   164 1075s
   130    16     cutoff    9      -184.48802 -181.23050  1.77%   155 1080s
   135    15 -183.70620    8  529 -184.48802 -181.77867  1.47%   162 1085s
   144    16 -184.07302    9  233 -184.48802 -181.90015  1.40%   157 1090s
   152    12     cutoff    7      -184.48802 -182.04488  1.32%   154 1095s
   165     5     cutoff    7      -184.48802 -183.48137  0.55%   148 1100s

Cutting planes:
  Gomory: 6
  MIR: 1
  Zero half: 306

Explored 176 nodes (102763 simplex iterations) in 1104.19 seconds
Thread count was 1 (of 80 available processors)

Solution count 8: -184.488 -186.117 -187.601 ... -8188.92

Optimal solution found (tolerance 1.00e-04)
Best objective -1.844880200727e+02, best bound -1.844880200727e+02, gap 0.0000%
